c 
c G(k,n,p) graph
c graph gen seed     : 753
c number of vertices : 60
c max number of edges: 900
c number of classes  : 2
c edge density       : 0.400000
c edge probability   : 0.800000
c data structure     : dense
c
c           Graph Stats
c number of vertices  : 60
c nonisolated vertices: 60
c number of edges     : 728
c edge density        : 0.411299
c max degree          : 29
c avg degree          : 24.27
c min degree          : 16
p col 60 728
e 1 6
e 1 8
e 1 10
e 1 11
e 1 12
e 1 14
e 1 15
e 1 16
e 1 17
e 1 18
e 1 20
e 1 22
e 1 24
e 1 27
e 1 35
e 1 37
e 1 38
e 1 39
e 1 40
e 1 42
e 1 48
e 1 49
e 1 53
e 1 57
e 1 58
e 1 60
e 2 6
e 2 8
e 2 11
e 2 12
e 2 15
e 2 16
e 2 17
e 2 18
e 2 20
e 2 22
e 2 24
e 2 25
e 2 32
e 2 35
e 2 37
e 2 39
e 2 40
e 2 42
e 2 48
e 2 49
e 2 53
e 2 55
e 2 57
e 2 58
e 2 60
e 3 6
e 3 8
e 3 11
e 3 12
e 3 14
e 3 16
e 3 17
e 3 22
e 3 24
e 3 27
e 3 32
e 3 35
e 3 37
e 3 38
e 3 40
e 3 42
e 3 48
e 3 53
e 3 55
e 3 57
e 3 58
e 3 60
e 4 6
e 4 8
e 4 10
e 4 11
e 4 12
e 4 14
e 4 15
e 4 16
e 4 18
e 4 20
e 4 24
e 4 25
e 4 35
e 4 37
e 4 38
e 4 39
e 4 40
e 4 42
e 4 49
e 4 57
e 4 58
e 4 60
e 5 6
e 5 8
e 5 10
e 5 14
e 5 15
e 5 16
e 5 17
e 5 18
e 5 20
e 5 22
e 5 24
e 5 25
e 5 27
e 5 35
e 5 37
e 5 38
e 5 39
e 5 42
e 5 48
e 5 49
e 5 53
e 5 55
e 5 57
e 5 60
e 6 7
e 6 13
e 6 19
e 6 21
e 6 23
e 6 26
e 6 28
e 6 29
e 6 30
e 6 31
e 6 33
e 6 34
e 6 36
e 6 43
e 6 44
e 6 45
e 6 47
e 6 50
e 6 51
e 6 52
e 6 54
e 6 56
e 6 59
e 7 8
e 7 10
e 7 11
e 7 12
e 7 14
e 7 15
e 7 17
e 7 18
e 7 20
e 7 22
e 7 27
e 7 32
e 7 35
e 7 37
e 7 38
e 7 39
e 7 40
e 7 42
e 7 48
e 7 49
e 7 55
e 7 57
e 7 58
e 7 60
e 8 9
e 8 13
e 8 19
e 8 21
e 8 23
e 8 26
e 8 29
e 8 30
e 8 31
e 8 33
e 8 34
e 8 41
e 8 43
e 8 44
e 8 45
e 8 46
e 8 47
e 8 50
e 8 51
e 8 52
e 8 54
e 8 59
e 9 11
e 9 12
e 9 14
e 9 15
e 9 16
e 9 17
e 9 18
e 9 22
e 9 25
e 9 27
e 9 32
e 9 35
e 9 37
e 9 38
e 9 39
e 9 40
e 9 42
e 9 48
e 9 53
e 9 55
e 9 57
e 9 60
e 10 13
e 10 19
e 10 21
e 10 23
e 10 26
e 10 28
e 10 29
e 10 30
e 10 31
e 10 34
e 10 41
e 10 43
e 10 44
e 10 45
e 10 46
e 10 50
e 10 52
e 10 59
e 11 13
e 11 19
e 11 21
e 11 23
e 11 29
e 11 30
e 11 31
e 11 33
e 11 34
e 11 36
e 11 44
e 11 50
e 11 52
e 11 56
e 12 13
e 12 19
e 12 21
e 12 23
e 12 26
e 12 28
e 12 29
e 12 30
e 12 31
e 12 33
e 12 34
e 12 36
e 12 41
e 12 43
e 12 45
e 12 47
e 12 51
e 12 56
e 12 59
e 13 14
e 13 15
e 13 16
e 13 17
e 13 18
e 13 20
e 13 22
e 13 24
e 13 25
e 13 27
e 13 32
e 13 35
e 13 37
e 13 38
e 13 39
e 13 40
e 13 42
e 13 48
e 13 49
e 13 53
e 13 55
e 13 57
e 13 58
e 13 60
e 14 19
e 14 21
e 14 28
e 14 29
e 14 30
e 14 31
e 14 33
e 14 34
e 14 36
e 14 43
e 14 44
e 14 45
e 14 46
e 14 47
e 14 50
e 14 51
e 14 52
e 14 59
e 15 19
e 15 21
e 15 23
e 15 26
e 15 33
e 15 34
e 15 36
e 15 41
e 15 43
e 15 44
e 15 46
e 15 47
e 15 50
e 15 51
e 15 52
e 15 54
e 15 56
e 15 59
e 16 19
e 16 21
e 16 23
e 16 26
e 16 28
e 16 29
e 16 30
e 16 31
e 16 33
e 16 34
e 16 36
e 16 41
e 16 45
e 16 46
e 16 47
e 16 51
e 16 52
e 16 54
e 16 56
e 16 59
e 17 19
e 17 21
e 17 23
e 17 26
e 17 28
e 17 30
e 17 31
e 17 36
e 17 41
e 17 43
e 17 44
e 17 45
e 17 46
e 17 50
e 17 51
e 17 52
e 17 54
e 17 56
e 17 59
e 18 19
e 18 21
e 18 26
e 18 28
e 18 29
e 18 30
e 18 31
e 18 33
e 18 34
e 18 36
e 18 41
e 18 43
e 18 44
e 18 45
e 18 46
e 18 47
e 18 50
e 18 51
e 18 54
e 18 56
e 18 59
e 19 20
e 19 24
e 19 25
e 19 27
e 19 32
e 19 35
e 19 38
e 19 39
e 19 40
e 19 42
e 19 48
e 19 49
e 19 53
e 19 55
e 19 57
e 19 58
e 19 60
e 20 21
e 20 26
e 20 28
e 20 29
e 20 30
e 20 31
e 20 33
e 20 34
e 20 36
e 20 43
e 20 44
e 20 45
e 20 46
e 20 47
e 20 50
e 20 51
e 20 52
e 20 54
e 20 56
e 20 59
e 21 22
e 21 24
e 21 25
e 21 27
e 21 32
e 21 35
e 21 37
e 21 38
e 21 39
e 21 40
e 21 42
e 21 49
e 21 53
e 21 55
e 21 58
e 21 60
e 22 23
e 22 28
e 22 30
e 22 31
e 22 33
e 22 34
e 22 36
e 22 43
e 22 45
e 22 46
e 22 47
e 22 50
e 22 51
e 22 54
e 22 56
e 22 59
e 23 25
e 23 27
e 23 32
e 23 35
e 23 37
e 23 38
e 23 40
e 23 42
e 23 48
e 23 49
e 23 53
e 23 55
e 23 57
e 23 58
e 23 60
e 24 26
e 24 28
e 24 29
e 24 33
e 24 34
e 24 36
e 24 43
e 24 45
e 24 46
e 24 47
e 24 50
e 24 52
e 24 56
e 24 59
e 25 26
e 25 28
e 25 29
e 25 30
e 25 31
e 25 34
e 25 36
e 25 41
e 25 43
e 25 44
e 25 45
e 25 46
e 25 47
e 25 50
e 25 51
e 25 54
e 25 56
e 25 59
e 26 27
e 26 32
e 26 35
e 26 37
e 26 38
e 26 42
e 26 48
e 26 49
e 26 53
e 26 55
e 26 57
e 26 60
e 27 29
e 27 30
e 27 34
e 27 36
e 27 41
e 27 43
e 27 44
e 27 45
e 27 47
e 27 50
e 27 51
e 27 52
e 27 56
e 27 59
e 28 32
e 28 35
e 28 40
e 28 42
e 28 49
e 28 57
e 28 58
e 28 60
e 29 32
e 29 35
e 29 37
e 29 38
e 29 39
e 29 40
e 29 42
e 29 48
e 29 49
e 29 53
e 29 55
e 29 58
e 30 32
e 30 35
e 30 38
e 30 39
e 30 40
e 30 48
e 30 49
e 30 55
e 30 57
e 30 58
e 31 32
e 31 37
e 31 38
e 31 40
e 31 42
e 31 48
e 31 53
e 31 58
e 32 33
e 32 34
e 32 36
e 32 43
e 32 44
e 32 45
e 32 50
e 32 51
e 32 52
e 32 56
e 32 59
e 33 37
e 33 38
e 33 39
e 33 40
e 33 42
e 33 48
e 33 49
e 33 53
e 33 55
e 33 58
e 33 60
e 34 35
e 34 38
e 34 39
e 34 42
e 34 48
e 34 55
e 34 57
e 34 58
e 34 60
e 35 36
e 35 41
e 35 43
e 35 44
e 35 45
e 35 46
e 35 47
e 35 51
e 35 52
e 35 54
e 35 56
e 36 37
e 36 38
e 36 39
e 36 40
e 36 42
e 36 48
e 36 49
e 36 53
e 36 55
e 36 60
e 37 41
e 37 43
e 37 44
e 37 45
e 37 46
e 37 51
e 37 52
e 37 54
e 37 56
e 37 59
e 38 43
e 38 44
e 38 45
e 38 46
e 38 47
e 38 50
e 38 51
e 38 52
e 38 54
e 38 56
e 39 43
e 39 44
e 39 45
e 39 46
e 39 47
e 39 50
e 39 51
e 39 52
e 39 54
e 39 56
e 39 59
e 40 43
e 40 44
e 40 45
e 40 46
e 40 47
e 40 51
e 40 52
e 40 54
e 40 56
e 40 59
e 41 42
e 41 48
e 41 49
e 41 53
e 41 57
e 42 43
e 42 44
e 42 45
e 42 46
e 42 47
e 42 51
e 42 56
e 43 48
e 43 49
e 43 53
e 43 55
e 43 57
e 43 58
e 43 60
e 44 48
e 44 49
e 44 53
e 44 55
e 44 58
e 45 48
e 45 49
e 45 53
e 45 55
e 45 57
e 45 58
e 45 60
e 46 49
e 46 53
e 46 55
e 47 48
e 47 49
e 47 53
e 47 55
e 47 57
e 47 58
e 47 60
e 48 50
e 48 51
e 48 54
e 48 59
e 49 50
e 49 51
e 49 52
e 49 54
e 49 56
e 50 53
e 50 55
e 50 57
e 50 60
e 51 53
e 51 55
e 51 57
e 51 58
e 51 60
e 52 53
e 52 55
e 52 57
e 52 58
e 52 60
e 53 56
e 53 59
e 54 55
e 54 57
e 54 58
e 54 60
e 55 59
e 56 57
e 57 59
e 59 60
